NAME          BLANK   
ROWS
 N  OBJROW
 L  R0000000
COLUMNS
    C0000000  OBJROW     -447.         R0000000  299.        
    C0000001  OBJROW     -799.         R0000000  301.        
    C0000002  OBJROW     -394.         R0000000  116.        
    C0000003  OBJROW     -489.         R0000000  562.        
    C0000004  OBJROW     -447.         R0000000  584.        
    C0000005  OBJROW     -876.         R0000000  706.        
    C0000006  OBJROW     -79.          R0000000  913.        
    C0000007  OBJROW     -906.         R0000000  272.        
    C0000008  OBJROW     -920.         R0000000  192.        
    C0000009  OBJROW     -170.         R0000000  136.        
    C0000010  OBJROW     -913.         R0000000  729.        
    C0000011  OBJROW     -25.          R0000000  184.        
    C0000012  OBJROW     -169.         R0000000  506.        
    C0000013  OBJROW     -346.         R0000000  202.        
    C0000014  OBJROW     -160.         R0000000  408.        
    C0000015  OBJROW     -353.         R0000000  967.        
    C0000016  OBJROW     -928.         R0000000  963.        
    C0000017  OBJROW     -170.         R0000000  598.        
RHS
    RHS       R0000000  15344.      
BOUNDS
 BV BOUND     C0000000  1.          
 BV BOUND     C0000001  1.          
 BV BOUND     C0000002  1.          
 BV BOUND     C0000003  1.          
 BV BOUND     C0000004  1.          
 BV BOUND     C0000005  1.          
 BV BOUND     C0000006  1.          
 BV BOUND     C0000007  1.          
 BV BOUND     C0000008  1.          
 BV BOUND     C0000009  1.          
 BV BOUND     C0000010  1.          
 BV BOUND     C0000011  1.          
 BV BOUND     C0000012  1.          
 BV BOUND     C0000013  1.          
 BV BOUND     C0000014  1.          
 BV BOUND     C0000015  1.          
 BV BOUND     C0000016  1.          
 BV BOUND     C0000017  1.          
ENDATA
